p cnf 103 354
4 -2 0
4 3 0
2 -3 -4 0
5 -1 0
5 4 0
1 -4 -5 0
-8 9 -10 0
8 -9 -10 0
-8 -9 10 0
8 9 10 0
13 -11 0
13 12 0
11 -12 -13 0
10 -13 -14 0
-10 13 -14 0
10 13 14 0
-10 -13 14 0
3 14 -15 0
-3 -14 -15 0
3 -14 15 0
-3 14 15 0
7 -15 -16 0
-7 15 -16 0
7 15 16 0
-7 -15 16 0
-6 16 -17 0
6 -16 -17 0
-6 -16 17 0
6 16 17 0
18 -17 0
18 8 0
17 -8 -18 0
20 -18 0
20 19 0
18 -19 -20 0
21 5 0
21 -20 0
-5 20 -21 0
22 -23 0
-22 -23 0
24 21 0
24 23 0
-21 -23 -24 0
25 -19 0
25 2 0
19 -2 -25 0
14 25 -26 0
-14 -25 -26 0
14 -25 26 0
-14 25 26 0
27 -22 0
27 -11 0
22 11 -27 0
28 -27 0
28 1 0
27 -1 -28 0
29 -26 0
29 28 0
26 -28 -29 0
30 -16 0
30 -16 0
16 -30 0
-31 13 0
-31 -19 0
-13 19 31 0
-31 3 -32 0
31 -3 -32 0
-31 -3 32 0
31 3 32 0
-33 -30 0
-33 -32 0
30 32 33 0
-34 -29 0
-34 33 0
29 -33 34 0
35 1 0
35 19 0
-1 -19 -35 0
-37 -36 0
-37 22 0
36 -22 37 0
-38 6 0
-38 37 0
-6 -37 38 0
39 -15 0
39 38 0
15 -38 -39 0
-40 39 0
-40 -37 0
-39 37 40 0
35 -40 -41 0
-35 40 -41 0
35 40 41 0
-35 -40 41 0
-34 41 -42 0
34 -41 -42 0
-34 -41 42 0
34 41 42 0
-43 31 0
-43 -16 0
-31 16 43 0
-10 -43 -44 0
10 43 -44 0
-10 43 44 0
10 -43 44 0
45 -46 0
-45 -46 0
-47 -22 0
-47 14 0
22 -14 47 0
48 -46 0
48 -47 0
46 47 -48 0
-48 38 -49 0
48 -38 -49 0
-48 -38 49 0
48 38 49 0
44 -49 -50 0
-44 49 -50 0
44 49 50 0
-44 -49 50 0
51 42 0
51 50 0
-42 -50 -51 0
-17 38 -52 0
17 -38 -52 0
-17 -38 52 0
17 38 52 0
-47 -31 -53 0
47 31 -53 0
-47 31 53 0
47 -31 53 0
-54 52 0
-54 53 0
-52 -53 54 0
-15 10 -55 0
15 -10 -55 0
-15 -10 55 0
15 10 55 0
-56 -55 0
-56 47 0
55 -47 56 0
54 56 -57 0
-54 -56 -57 0
54 -56 57 0
-54 56 57 0
58 -51 0
58 57 0
51 -57 -58 0
59 -24 0
59 -58 0
24 58 -59 0
60 -38 0
60 2 0
38 -2 -60 0
18 -36 -61 0
-18 36 -61 0
18 36 61 0
-18 -36 61 0
-62 47 0
-62 61 0
-47 -61 62 0
63 -31 0
63 43 0
31 -43 -63 0
-64 45 0
-64 63 0
-45 -63 64 0
65 -62 0
65 64 0
62 -64 -65 0
66 -18 0
66 -14 0
18 14 -66 0
-67 -46 0
-67 3 0
46 -3 67 0
-68 67 0
-68 19 0
-67 -19 68 0
13 68 -69 0
-13 -68 -69 0
13 -68 69 0
-13 68 69 0
70 -66 0
70 -69 0
66 69 -70 0
71 -48 0
71 -48 0
48 -71 0
12 71 -72 0
-12 -71 -72 0
12 -71 72 0
-12 71 72 0
-73 72 0
-73 -27 0
-72 27 73 0
74 70 0
74 -73 0
-70 73 -74 0
-75 -65 0
-75 -74 0
65 74 75 0
-76 60 0
-76 75 0
-60 -75 76 0
-32 27 -77 0
32 -27 -77 0
-32 -27 77 0
32 27 77 0
-78 37 0
-78 -36 0
-37 36 78 0
-79 -18 0
-79 78 0
18 -78 79 0
-4 37 -80 0
4 -37 -80 0
-4 -37 80 0
4 37 80 0
81 79 0
81 -80 0
-79 80 -81 0
77 -81 -82 0
-77 81 -82 0
77 81 82 0
-77 -81 82 0
-12 -83 -84 0
12 83 -84 0
-12 83 84 0
12 -83 84 0
85 82 0
85 -84 0
-82 84 -85 0
-76 85 -86 0
76 -85 -86 0
-76 -85 86 0
76 85 86 0
-87 -31 0
-87 -31 0
31 87 0
-88 -26 0
-88 48 0
26 -48 88 0
-43 88 -89 0
43 -88 -89 0
-43 -88 89 0
43 88 89 0
45 32 -90 0
-45 -32 -90 0
45 -32 90 0
-45 32 90 0
-91 26 0
-91 -9 0
-26 9 91 0
92 -91 0
92 52 0
91 -52 -92 0
-90 -92 -93 0
90 92 -93 0
-90 92 93 0
90 -92 93 0
94 89 0
94 93 0
-89 -93 -94 0
95 3 0
95 6 0
-3 -6 -95 0
-96 -49 0
-96 -95 0
49 95 96 0
94 96 -97 0
-94 -96 -97 0
94 -96 97 0
-94 96 97 0
98 87 0
98 97 0
-87 -97 -98 0
-99 -55 0
-99 -52 0
55 52 99 0
100 14 0
100 99 0
-14 -99 -100 0
101 98 0
101 100 0
-98 -100 -101 0
-86 -101 -102 0
86 101 -102 0
-86 101 102 0
86 -101 102 0
103 59 0
103 102 0
-59 -102 -103 0
-32 48 72 29 0
96 -25 -42 -89 -80 0
-90 -33 0
29 -56 0
-62 20 0
14 -98 -51 43 0
66 91 74 101 -13 0
-60 -85 -77 -74 0
47 -88 40 0
86 5 0
47 -32 -33 -38 0
-17 -100 39 -53 0
-69 -103 -35 0
-19 -21 -2 33 -77 0
-73 -46 -27 -84 0
61 41 -93 94 0
-66 -7 103 0
84 93 -32 99 0
68 73 97 -85 -41 -6 0
-15 52 -11 0
102 -14 88 -32 75 98 0
62 -68 52 -43 0
76 97 -47 19 -74 0
-32 33 0
-45 -57 8 -56 75 0
-16 -44 3 0
84 79 -68 100 96 0
62 40 31 0
56 98 -44 -51 -5 0
-47 -1 -12 0
84 25 -49 0
50 40 0
-25 55 84 -103 74 0
-64 97 23 0
-3 -67 -5 8 -33 -71 0
-61 -30 -67 0
58 59 77 -91 -102 0
94 73 -65 -87 -21 22 0
9 -25 -10 41 -86 0
-101 -57 61 0
7 24 -65 0
-8 -93 101 0
-24 101 -14 3 53 0
84 -8 0
-56 25 27 0
6 -2 22 -42 0
-53 66 0
80 -47 0
80 39 72 53 -84 0
-16 78 0
88 -65 -23 72 70 0
92 -66 -22 -103 0
22 -77 76 0
-17 -3 20 -102 -1 0
91 -45 -88 13 0
-47 27 -103 49 0
63 5 -22 -23 -80 0
-99 87 0
47 71 0
103 0
